20
1 0 4
2 0 3
3 1 3
3 2 4
4 3 3
5 1 1
5 2 1
6 0 2
6 1 4
6 2 2
6 3 2
6 5 1
7 0 3
7 1 1
7 5 4
7 6 3
8 0 1
8 1 1
8 2 2
8 6 2
9 2 2
9 7 4
9 8 4
10 0 4
10 2 4
10 3 3
10 4 1
10 7 1
11 0 1
11 2 2
11 4 2
11 5 3
12 1 2
12 3 1
12 4 3
12 5 1
12 6 1
12 8 4
12 9 2
13 5 1
13 6 1
13 7 4
13 8 4
13 10 3
13 11 3
13 12 1
14 0 3
14 1 4
14 2 1
14 6 2
14 9 3
14 10 1
15 0 2
15 1 2
15 2 4
15 3 4
15 6 2
15 7 3
15 8 4
15 9 4
15 10 2
15 11 1
15 12 4
15 14 3
16 1 1
16 2 3
16 4 3
16 6 2
16 8 4
16 12 1
16 13 4
17 1 3
17 3 1
17 4 2
17 5 4
17 9 1
17 10 3
17 11 1
17 13 2
17 14 1
17 15 1
18 0 1
18 2 4
18 3 1
18 6 4
18 7 4
18 12 1
18 13 4
18 17 2
19 1 2
19 5 2
19 7 3
19 10 4
19 11 3
19 13 2
19 14 4
19 16 1
19 18 4
